nN = 8;
nR = 24;
nH = 2;

a = [[16, 20, 15, 22, 21, 21, 19, 20, 16, 24, 23, 18, 21, 15, 19, 25, 15, 24, 15, 21, 17, 17, 25, 18], [24, 20, 22, 17, 16, 22, 25, 23, 22, 23, 22, 25, 25, 15, 15, 19, 24, 22, 16, 18, 22, 22, 23, 25], [17, 20, 18, 18, 15, 21, 24, 19, 17, 24, 16, 17, 24, 16, 19, 21, 21, 18, 16, 25, 17, 17, 18, 24], [21, 25, 17, 17, 21, 22, 17, 19, 23, 17, 19, 18, 16, 16, 18, 21, 18, 24, 19, 17, 24, 18, 23, 21], [15, 19, 24, 21, 20, 22, 16, 20, 20, 24, 21, 25, 21, 19, 22, 17, 25, 19, 17, 25, 22, 15, 19, 16], [24, 22, 25, 20, 15, 19, 15, 16, 18, 25, 22, 17, 25, 22, 18, 15, 16, 20, 21, 24, 17, 16, 17, 18], [19, 17, 22, 20, 21, 18, 19, 17, 23, 21, 18, 15, 22, 23, 22, 15, 19, 19, 23, 23, 17, 21, 18, 20], [25, 24, 22, 23, 21, 23, 25, 22, 25, 16, 24, 22, 23, 17, 22, 18, 19, 15, 17, 25, 21, 23, 25, 24]];
c = [[[0, 0, 0, 0, 0, 0, 0, 0, 0, 0, 0, 0, 0, 0, 0, 0, 0, 0, 0, 0, 0, 0, 0, 0], [33, 40, 37, 37, 48, 32, 33, 44, 35, 38, 36, 38, 38, 46, 32, 49, 42, 36, 46, 47, 46, 48, 46, 50], [39, 43, 45, 44, 34, 50, 40, 43, 33, 44, 47, 42, 47, 45, 45, 49, 30, 43, 43, 35, 50, 49, 47, 45], [41, 45, 35, 32, 41, 47, 32, 42, 33, 46, 38, 36, 39, 33, 45, 42, 39, 33, 32, 32, 39, 34, 49, 39], [50, 44, 31, 30, 47, 50, 40, 47, 46, 37, 34, 37, 36, 38, 44, 39, 33, 35, 47, 42, 37, 46, 40, 39], [33, 39, 36, 37, 30, 37, 40, 43, 44, 50, 38, 45, 41, 31, 41, 46, 40, 47, 33, 48, 43, 47, 36, 46], [31, 46, 32, 39, 50, 30, 38, 41, 42, 41, 33, 48, 43, 49, 48, 49, 37, 39, 32, 42, 45, 37, 41, 32], [37, 44, 42, 41, 37, 49, 35, 40, 35, 31, 40, 45, 46, 45, 50, 48, 50, 34, 36, 46, 39, 46, 31, 49]], [[0, 0, 0, 0, 0, 0, 0, 0, 0, 0, 0, 0, 0, 0, 0, 0, 0, 0, 0, 0, 0, 0, 0, 0], [0, 0, 0, 0, 0, 0, 0, 0, 0, 0, 0, 0, 0, 0, 0, 0, 0, 0, 0, 0, 0, 0, 0, 0], [50, 43, 46, 49, 48, 33, 36, 30, 39, 31, 31, 37, 40, 50, 36, 43, 44, 48, 30, 45, 42, 43, 46, 40], [35, 31, 33, 37, 44, 42, 44, 40, 39, 31, 33, 44, 35, 50, 39, 49, 50, 33, 39, 49, 44, 45, 36, 50], [44, 34, 43, 48, 36, 35, 36, 44, 32, 47, 33, 39, 37, 45, 41, 32, 39, 35, 39, 35, 36, 48, 45, 45], [38, 43, 38, 49, 32, 36, 37, 39, 30, 47, 44, 49, 34, 41, 32, 30, 39, 44, 37, 38, 37, 33, 33, 40], [37, 30, 33, 41, 39, 37, 34, 49, 44, 37, 39, 44, 48, 44, 49, 32, 47, 39, 44, 47, 47, 37, 45, 45], [49, 37, 43, 33, 41, 32, 30, 48, 43, 32, 49, 39, 35, 32, 32, 49, 39, 42, 35, 38, 33, 50, 41, 37]], [[0, 0, 0, 0, 0, 0, 0, 0, 0, 0, 0, 0, 0, 0, 0, 0, 0, 0, 0, 0, 0, 0, 0, 0], [0, 0, 0, 0, 0, 0, 0, 0, 0, 0, 0, 0, 0, 0, 0, 0, 0, 0, 0, 0, 0, 0, 0, 0], [0, 0, 0, 0, 0, 0, 0, 0, 0, 0, 0, 0, 0, 0, 0, 0, 0, 0, 0, 0, 0, 0, 0, 0], [49, 35, 43, 48, 41, 44, 40, 47, 34, 39, 44, 44, 37, 43, 50, 46, 48, 35, 36, 38, 32, 39, 32, 34], [37, 50, 33, 34, 44, 37, 42, 50, 31, 40, 33, 32, 31, 37, 39, 40, 45, 33, 41, 38, 45, 35, 35, 43], [33, 45, 32, 37, 31, 36, 34, 38, 32, 50, 43, 39, 35, 37, 50, 30, 50, 46, 33, 46, 48, 43, 49, 41], [35, 30, 48, 50, 41, 38, 30, 42, 43, 47, 50, 47, 37, 41, 30, 35, 46, 39, 36, 49, 48, 44, 33, 30], [50, 41, 31, 45, 38, 47, 42, 32, 48, 46, 30, 42, 33, 30, 42, 43, 45, 30, 46, 35, 44, 45, 44, 34]], [[0, 0, 0, 0, 0, 0, 0, 0, 0, 0, 0, 0, 0, 0, 0, 0, 0, 0, 0, 0, 0, 0, 0, 0], [0, 0, 0, 0, 0, 0, 0, 0, 0, 0, 0, 0, 0, 0, 0, 0, 0, 0, 0, 0, 0, 0, 0, 0], [0, 0, 0, 0, 0, 0, 0, 0, 0, 0, 0, 0, 0, 0, 0, 0, 0, 0, 0, 0, 0, 0, 0, 0], [0, 0, 0, 0, 0, 0, 0, 0, 0, 0, 0, 0, 0, 0, 0, 0, 0, 0, 0, 0, 0, 0, 0, 0], [45, 44, 32, 34, 48, 46, 33, 35, 49, 33, 30, 40, 47, 33, 36, 41, 50, 45, 42, 32, 30, 36, 35, 33], [34, 43, 43, 39, 30, 33, 48, 50, 35, 39, 31, 48, 36, 49, 37, 30, 31, 46, 30, 35, 32, 43, 42, 38], [50, 39, 39, 34, 39, 33, 33, 36, 43, 42, 35, 45, 42, 40, 47, 35, 30, 42, 42, 37, 30, 47, 36, 45], [45, 31, 47, 39, 30, 39, 44, 48, 38, 47, 34, 45, 39, 33, 45, 38, 46, 44, 49, 39, 37, 40, 31, 50]], [[0, 0, 0, 0, 0, 0, 0, 0, 0, 0, 0, 0, 0, 0, 0, 0, 0, 0, 0, 0, 0, 0, 0, 0], [0, 0, 0, 0, 0, 0, 0, 0, 0, 0, 0, 0, 0, 0, 0, 0, 0, 0, 0, 0, 0, 0, 0, 0], [0, 0, 0, 0, 0, 0, 0, 0, 0, 0, 0, 0, 0, 0, 0, 0, 0, 0, 0, 0, 0, 0, 0, 0], [0, 0, 0, 0, 0, 0, 0, 0, 0, 0, 0, 0, 0, 0, 0, 0, 0, 0, 0, 0, 0, 0, 0, 0], [0, 0, 0, 0, 0, 0, 0, 0, 0, 0, 0, 0, 0, 0, 0, 0, 0, 0, 0, 0, 0, 0, 0, 0], [34, 31, 39, 46, 40, 30, 37, 44, 46, 44, 41, 39, 30, 46, 44, 44, 36, 46, 47, 31, 34, 30, 39, 36], [44, 46, 43, 35, 39, 39, 36, 31, 50, 47, 44, 30, 40, 45, 43, 45, 47, 45, 43, 46, 30, 47, 31, 46], [33, 40, 46, 37, 41, 35, 44, 45, 45, 49, 30, 47, 42, 41, 33, 46, 32, 34, 45, 36, 50, 45, 48, 45]], [[0, 0, 0, 0, 0, 0, 0, 0, 0, 0, 0, 0, 0, 0, 0, 0, 0, 0, 0, 0, 0, 0, 0, 0], [0, 0, 0, 0, 0, 0, 0, 0, 0, 0, 0, 0, 0, 0, 0, 0, 0, 0, 0, 0, 0, 0, 0, 0], [0, 0, 0, 0, 0, 0, 0, 0, 0, 0, 0, 0, 0, 0, 0, 0, 0, 0, 0, 0, 0, 0, 0, 0], [0, 0, 0, 0, 0, 0, 0, 0, 0, 0, 0, 0, 0, 0, 0, 0, 0, 0, 0, 0, 0, 0, 0, 0], [0, 0, 0, 0, 0, 0, 0, 0, 0, 0, 0, 0, 0, 0, 0, 0, 0, 0, 0, 0, 0, 0, 0, 0], [0, 0, 0, 0, 0, 0, 0, 0, 0, 0, 0, 0, 0, 0, 0, 0, 0, 0, 0, 0, 0, 0, 0, 0], [41, 47, 50, 34, 40, 47, 32, 32, 35, 41, 43, 40, 42, 43, 34, 45, 43, 36, 45, 38, 37, 41, 32, 30], [38, 40, 47, 42, 30, 46, 42, 47, 47, 47, 50, 37, 49, 40, 50, 39, 38, 40, 31, 43, 49, 36, 46, 38]], [[0, 0, 0, 0, 0, 0, 0, 0, 0, 0, 0, 0, 0, 0, 0, 0, 0, 0, 0, 0, 0, 0, 0, 0], [0, 0, 0, 0, 0, 0, 0, 0, 0, 0, 0, 0, 0, 0, 0, 0, 0, 0, 0, 0, 0, 0, 0, 0], [0, 0, 0, 0, 0, 0, 0, 0, 0, 0, 0, 0, 0, 0, 0, 0, 0, 0, 0, 0, 0, 0, 0, 0], [0, 0, 0, 0, 0, 0, 0, 0, 0, 0, 0, 0, 0, 0, 0, 0, 0, 0, 0, 0, 0, 0, 0, 0], [0, 0, 0, 0, 0, 0, 0, 0, 0, 0, 0, 0, 0, 0, 0, 0, 0, 0, 0, 0, 0, 0, 0, 0], [0, 0, 0, 0, 0, 0, 0, 0, 0, 0, 0, 0, 0, 0, 0, 0, 0, 0, 0, 0, 0, 0, 0, 0], [0, 0, 0, 0, 0, 0, 0, 0, 0, 0, 0, 0, 0, 0, 0, 0, 0, 0, 0, 0, 0, 0, 0, 0], [36, 47, 42, 35, 48, 45, 32, 30, 31, 37, 43, 42, 36, 49, 47, 43, 33, 39, 43, 30, 46, 46, 49, 35]], [[0, 0, 0, 0, 0, 0, 0, 0, 0, 0, 0, 0, 0, 0, 0, 0, 0, 0, 0, 0, 0, 0, 0, 0], [0, 0, 0, 0, 0, 0, 0, 0, 0, 0, 0, 0, 0, 0, 0, 0, 0, 0, 0, 0, 0, 0, 0, 0], [0, 0, 0, 0, 0, 0, 0, 0, 0, 0, 0, 0, 0, 0, 0, 0, 0, 0, 0, 0, 0, 0, 0, 0], [0, 0, 0, 0, 0, 0, 0, 0, 0, 0, 0, 0, 0, 0, 0, 0, 0, 0, 0, 0, 0, 0, 0, 0], [0, 0, 0, 0, 0, 0, 0, 0, 0, 0, 0, 0, 0, 0, 0, 0, 0, 0, 0, 0, 0, 0, 0, 0], [0, 0, 0, 0, 0, 0, 0, 0, 0, 0, 0, 0, 0, 0, 0, 0, 0, 0, 0, 0, 0, 0, 0, 0], [0, 0, 0, 0, 0, 0, 0, 0, 0, 0, 0, 0, 0, 0, 0, 0, 0, 0, 0, 0, 0, 0, 0, 0], [0, 0, 0, 0, 0, 0, 0, 0, 0, 0, 0, 0, 0, 0, 0, 0, 0, 0, 0, 0, 0, 0, 0, 0]]];

q = [[[13, 110], [5, 114], [6, 105], [23, 114], [10, 106], [17, 115], [12, 105], [11, 116], [13, 123], [19, 123], [10, 121], [18, 114], [13, 106], [24, 111], [18, 108], [17, 119], [17, 105], [8, 118], [13, 113], [20, 109], [17, 115], [20, 109], [13, 123], [22, 111]], [[16, 121], [23, 111], [19, 124], [17, 125], [24, 121], [17, 108], [21, 106], [16, 109], [5, 107], [14, 124], [16, 119], [22, 106], [24, 124], [25, 114], [8, 122], [13, 121], [14, 116], [10, 118], [8, 123], [11, 111], [8, 124], [12, 113], [11, 105], [10, 114]], [[8, 119], [5, 107], [5, 117], [17, 123], [21, 111], [16, 111], [16, 123], [13, 108], [23, 113], [20, 106], [13, 115], [13, 121], [18, 111], [25, 115], [12, 106], [19, 115], [12, 109], [19, 115], [11, 113], [24, 119], [21, 111], [5, 113], [15, 107], [23, 114]], [[19, 109], [19, 113], [25, 119], [8, 123], [5, 105], [20, 105], [6, 106], [17, 119], [24, 109], [20, 125], [12, 123], [18, 120], [5, 107], [14, 107], [24, 120], [16, 110], [24, 107], [6, 112], [9, 122], [13, 111], [22, 106], [5, 109], [6, 121], [25, 112]], [[12, 107], [10, 107], [22, 120], [18, 121], [24, 119], [8, 118], [9, 112], [5, 114], [14, 125], [22, 105], [14, 121], [15, 105], [25, 122], [14, 105], [11, 108], [6, 124], [21, 105], [16, 107], [6, 120], [17, 123], [13, 112], [21, 122], [19, 121], [5, 105]], [[10, 116], [15, 105], [14, 107], [8, 122], [11, 110], [24, 111], [11, 116], [10, 111], [5, 124], [19, 118], [8, 123], [24, 125], [5, 120], [16, 109], [7, 107], [6, 115], [6, 116], [21, 110], [13, 106], [17, 115], [13, 119], [15, 117], [16, 111], [14, 121]], [[19, 119], [17, 113], [23, 116], [23, 119], [16, 112], [7, 115], [20, 113], [21, 117], [12, 123], [13, 107], [25, 105], [19, 124], [10, 122], [8, 125], [22, 117], [25, 119], [13, 125], [10, 108], [15, 123], [21, 117], [10, 115], [24, 106], [11, 113], [17, 120]], [[22, 113], [19, 117], [15, 118], [8, 119], [9, 115], [16, 112], [21, 115], [21, 115], [9, 124], [10, 112], [8, 107], [11, 124], [18, 118], [7, 114], [16, 124], [7, 113], [13, 107], [5, 118], [6, 109], [15, 110], [7, 111], [18, 116], [23, 117], [24, 109]]];
Q = [[35, 272], [36, 279], [37, 273], [36, 272], [34, 275], [30, 276], [40, 280], [32, 276]];
